(set-logic QF_S)
(declare-fun var0 () String)
(assert (RegexIn var0 (RegexConcat (RegexUnion (RegexPlus (Str2Reg "00")) (RegexPlus (Str2Reg "1"))) (RegexConcat (RegexPlus (RegexStar (Str2Reg "2"))) (RegexConcat (RegexPlus (RegexUnion (Str2Reg "33") (Str2Reg "44"))) (RegexConcat (RegexStar (RegexStar (Str2Reg "55"))) (RegexConcat (RegexStar (RegexStar (Str2Reg "6"))) (RegexConcat (RegexUnion (RegexStar (Str2Reg "77")) (RegexStar (Str2Reg "8"))) (RegexConcat (RegexUnion (RegexPlus (Str2Reg "99")) (RegexPlus (Str2Reg "aa"))) (RegexConcat (RegexPlus (RegexStar (Str2Reg "bb"))) (RegexConcat (RegexStar (RegexUnion (Str2Reg "ccc") (Str2Reg "ddd"))) (RegexConcat (RegexStar (RegexUnion (Str2Reg "e") (Str2Reg "fff"))) (RegexConcat (RegexStar (RegexUnion (Str2Reg "gg") (Str2Reg "hh"))) (RegexConcat (RegexStar (RegexUnion (Str2Reg "ii") (Str2Reg "jjj"))) (RegexConcat (RegexPlus (RegexPlus (Str2Reg "kk"))) (RegexConcat (RegexStar (RegexUnion (Str2Reg "lll") (Str2Reg "mmm"))) (RegexConcat (RegexUnion (RegexPlus (Str2Reg "nnn")) (RegexPlus (Str2Reg "oo"))) (RegexConcat (RegexStar (RegexStar (Str2Reg "ppp"))) (RegexConcat (RegexUnion (RegexPlus (Str2Reg "qq")) (RegexPlus (Str2Reg "r"))) (RegexConcat (RegexStar (RegexStar (Str2Reg "sss"))) (RegexConcat (RegexStar (RegexStar (Str2Reg "t"))) (RegexConcat (RegexUnion (RegexUnion (Str2Reg "u") (Str2Reg "vvv")) (RegexUnion (Str2Reg "www") (Str2Reg "x"))) (RegexConcat (RegexPlus (RegexUnion (Str2Reg "yyy") (Str2Reg "zz"))) (RegexConcat (RegexPlus (RegexPlus (Str2Reg "A"))) (RegexConcat (RegexPlus (RegexUnion (Str2Reg "BBB") (Str2Reg "CCC"))) (RegexConcat (RegexStar (RegexStar (Str2Reg "DDD"))) (RegexConcat (RegexStar (RegexUnion (Str2Reg "EE") (Str2Reg "F"))) (RegexConcat (RegexPlus (RegexStar (Str2Reg "G"))) (RegexConcat (RegexStar (RegexStar (Str2Reg "HH"))) (RegexConcat (RegexUnion (RegexUnion (Str2Reg "I") (Str2Reg "JJJ")) (RegexUnion (Str2Reg "K") (Str2Reg "L"))) (RegexConcat (RegexPlus (RegexPlus (Str2Reg "MM"))) (RegexConcat (RegexPlus (RegexUnion (Str2Reg "NNN") (Str2Reg "O"))) (RegexConcat (RegexUnion (RegexPlus (Str2Reg "PP")) (RegexPlus (Str2Reg "QQ"))) (RegexConcat (RegexPlus (RegexStar (Str2Reg "RRR"))) (RegexConcat (RegexUnion (RegexPlus (Str2Reg "SS")) (RegexPlus (Str2Reg "T"))) (RegexConcat (RegexPlus (RegexPlus (Str2Reg "U"))) (RegexConcat (RegexStar (RegexUnion (Str2Reg "VV") (Str2Reg "WWW"))) (RegexConcat (RegexPlus (RegexUnion (Str2Reg "XXX") (Str2Reg "YY"))) (RegexConcat (RegexUnion (RegexUnion (Str2Reg "ZZZ") (Str2Reg "!!")) (RegexUnion (Str2Reg "\"\"") (Str2Reg "#"))) (RegexConcat (RegexPlus (RegexUnion (Str2Reg "$$$") (Str2Reg "%%%"))) (RegexConcat (RegexUnion (RegexUnion (Str2Reg "&&") (Str2Reg "'''")) (RegexUnion (Str2Reg "((") (Str2Reg ")))"))) (RegexConcat (RegexUnion (RegexUnion (Str2Reg "**") (Str2Reg "+++")) (RegexUnion (Str2Reg ",,") (Str2Reg "--"))) (RegexConcat (RegexStar (RegexPlus (Str2Reg "."))) (RegexConcat (RegexStar (RegexPlus (Str2Reg "///"))) (RegexConcat (RegexPlus (RegexPlus (Str2Reg "::"))) (RegexConcat (RegexPlus (RegexUnion (Str2Reg ";;;") (Str2Reg "<"))) (RegexConcat (RegexStar (RegexUnion (Str2Reg "=") (Str2Reg ">>>"))) (RegexConcat (RegexPlus (RegexUnion (Str2Reg "??") (Str2Reg "@@"))) (RegexConcat (RegexStar (RegexUnion (Str2Reg "[") (Str2Reg "\\"))) (RegexConcat (RegexUnion (RegexPlus (Str2Reg "]]")) (RegexPlus (Str2Reg "^^^"))) (RegexConcat (RegexStar (RegexPlus (Str2Reg "__"))) (RegexConcat (RegexUnion (RegexPlus (Str2Reg "`")) (RegexPlus (Str2Reg "{"))) (RegexConcat (RegexStar (RegexPlus (Str2Reg "||"))) (RegexConcat (RegexPlus (RegexStar (Str2Reg "}}"))) (RegexConcat (RegexStar (RegexPlus (Str2Reg "~~~"))) (RegexConcat (RegexStar (RegexPlus (Str2Reg "00"))) (RegexConcat (RegexUnion (RegexUnion (Str2Reg "11") (Str2Reg "2")) (RegexUnion (Str2Reg "33") (Str2Reg "44"))) (RegexConcat (RegexPlus (RegexUnion (Str2Reg "5") (Str2Reg "666"))) (RegexConcat (RegexUnion (RegexUnion (Str2Reg "7") (Str2Reg "88")) (RegexUnion (Str2Reg "999") (Str2Reg "a"))) (RegexConcat (RegexUnion (RegexPlus (Str2Reg "bb")) (RegexPlus (Str2Reg "cc"))) (RegexConcat (RegexStar (RegexUnion (Str2Reg "d") (Str2Reg "e"))) (RegexConcat (RegexPlus (RegexPlus (Str2Reg "f"))) (RegexConcat (RegexUnion (RegexPlus (Str2Reg "ggg")) (RegexPlus (Str2Reg "hhh"))) (RegexConcat (RegexPlus (RegexStar (Str2Reg "i"))) (RegexConcat (RegexPlus (RegexStar (Str2Reg "jjj"))) (RegexConcat (RegexUnion (RegexPlus (Str2Reg "k")) (RegexPlus (Str2Reg "ll"))) (RegexConcat (RegexPlus (RegexPlus (Str2Reg "m"))) (RegexConcat (RegexPlus (RegexPlus (Str2Reg "n"))) (RegexConcat (RegexStar (RegexStar (Str2Reg "oo"))) (RegexConcat (RegexPlus (RegexPlus (Str2Reg "p"))) (RegexConcat (RegexUnion (RegexUnion (Str2Reg "qq") (Str2Reg "rr")) (RegexUnion (Str2Reg "s") (Str2Reg "t"))) (RegexConcat (RegexUnion (RegexPlus (Str2Reg "u")) (RegexPlus (Str2Reg "v"))) (RegexPlus (RegexStar (Str2Reg "www")))))))))))))))))))))))))))))))))))))))))))))))))))))))))))))))))))))))))))
(assert (not (RegexIn var0 (RegexConcat (RegexStar (RegexStar (Str2Reg "0"))) (RegexConcat (RegexPlus (RegexStar (Str2Reg "1"))) (RegexConcat (RegexUnion (RegexUnion (Str2Reg "2") (Str2Reg "33")) (RegexUnion (Str2Reg "4") (Str2Reg "55"))) (RegexConcat (RegexUnion (RegexStar (Str2Reg "6")) (RegexStar (Str2Reg "77"))) (RegexConcat (RegexStar (RegexPlus (Str2Reg "88"))) (RegexConcat (RegexPlus (RegexStar (Str2Reg "9"))) (RegexConcat (RegexUnion (RegexStar (Str2Reg "aa")) (RegexStar (Str2Reg "bb"))) (RegexConcat (RegexUnion (RegexStar (Str2Reg "cc")) (RegexStar (Str2Reg "d"))) (RegexConcat (RegexStar (RegexUnion (Str2Reg "e") (Str2Reg "f"))) (RegexConcat (RegexStar (RegexStar (Str2Reg "g"))) (RegexConcat (RegexStar (RegexUnion (Str2Reg "h") (Str2Reg "ii"))) (RegexConcat (RegexPlus (RegexStar (Str2Reg "j"))) (RegexConcat (RegexPlus (RegexPlus (Str2Reg "kkk"))) (RegexConcat (RegexStar (RegexPlus (Str2Reg "l"))) (RegexConcat (RegexPlus (RegexStar (Str2Reg "mm"))) (RegexConcat (RegexPlus (RegexStar (Str2Reg "nnn"))) (RegexConcat (RegexUnion (RegexPlus (Str2Reg "oo")) (RegexPlus (Str2Reg "pp"))) (RegexConcat (RegexStar (RegexPlus (Str2Reg "q"))) (RegexConcat (RegexStar (RegexStar (Str2Reg "r"))) (RegexConcat (RegexPlus (RegexPlus (Str2Reg "sss"))) (RegexConcat (RegexStar (RegexUnion (Str2Reg "t") (Str2Reg "uuu"))) (RegexConcat (RegexUnion (RegexUnion (Str2Reg "vvv") (Str2Reg "ww")) (RegexUnion (Str2Reg "xx") (Str2Reg "yyy"))) (RegexConcat (RegexStar (RegexUnion (Str2Reg "zz") (Str2Reg "AA"))) (RegexConcat (RegexPlus (RegexPlus (Str2Reg "BBB"))) (RegexConcat (RegexPlus (RegexUnion (Str2Reg "CCC") (Str2Reg "D"))) (RegexConcat (RegexPlus (RegexStar (Str2Reg "EE"))) (RegexConcat (RegexUnion (RegexPlus (Str2Reg "F")) (RegexPlus (Str2Reg "G"))) (RegexConcat (RegexPlus (RegexStar (Str2Reg "H"))) (RegexConcat (RegexStar (RegexStar (Str2Reg "II"))) (RegexConcat (RegexStar (RegexStar (Str2Reg "JJJ"))) (RegexConcat (RegexUnion (RegexUnion (Str2Reg "KK") (Str2Reg "LLL")) (RegexUnion (Str2Reg "M") (Str2Reg "N"))) (RegexConcat (RegexPlus (RegexUnion (Str2Reg "OO") (Str2Reg "P"))) (RegexConcat (RegexStar (RegexStar (Str2Reg "Q"))) (RegexConcat (RegexStar (RegexStar (Str2Reg "RRR"))) (RegexConcat (RegexPlus (RegexStar (Str2Reg "S"))) (RegexConcat (RegexPlus (RegexPlus (Str2Reg "TT"))) (RegexConcat (RegexStar (RegexUnion (Str2Reg "UUU") (Str2Reg "VVV"))) (RegexConcat (RegexUnion (RegexPlus (Str2Reg "WWW")) (RegexPlus (Str2Reg "XXX"))) (RegexConcat (RegexUnion (RegexStar (Str2Reg "YYY")) (RegexStar (Str2Reg "ZZ"))) (RegexConcat (RegexUnion (RegexStar (Str2Reg "!")) (RegexStar (Str2Reg "\"\""))) (RegexConcat (RegexUnion (RegexPlus (Str2Reg "###")) (RegexPlus (Str2Reg "$$$"))) (RegexConcat (RegexStar (RegexUnion (Str2Reg "%%%") (Str2Reg "&&"))) (RegexConcat (RegexStar (RegexPlus (Str2Reg "'"))) (RegexConcat (RegexStar (RegexPlus (Str2Reg "("))) (RegexConcat (RegexUnion (RegexPlus (Str2Reg ")))")) (RegexPlus (Str2Reg "*"))) (RegexConcat (RegexUnion (RegexUnion (Str2Reg "+++") (Str2Reg ",,")) (RegexUnion (Str2Reg "-") (Str2Reg "..."))) (RegexConcat (RegexPlus (RegexStar (Str2Reg "/"))) (RegexConcat (RegexPlus (RegexStar (Str2Reg "::"))) (RegexConcat (RegexStar (RegexUnion (Str2Reg ";;;") (Str2Reg "<<"))) (RegexConcat (RegexStar (RegexStar (Str2Reg "="))) (RegexConcat (RegexUnion (RegexPlus (Str2Reg ">")) (RegexPlus (Str2Reg "??"))) (RegexConcat (RegexPlus (RegexUnion (Str2Reg "@@") (Str2Reg "[[["))) (RegexConcat (RegexPlus (RegexStar (Str2Reg "\\\\\\"))) (RegexConcat (RegexPlus (RegexStar (Str2Reg "]]]"))) (RegexConcat (RegexStar (RegexStar (Str2Reg "^^^"))) (RegexConcat (RegexStar (RegexUnion (Str2Reg "__") (Str2Reg "``"))) (RegexConcat (RegexStar (RegexPlus (Str2Reg "{{{"))) (RegexConcat (RegexUnion (RegexPlus (Str2Reg "|||")) (RegexPlus (Str2Reg "}"))) (RegexConcat (RegexStar (RegexPlus (Str2Reg "~"))) (RegexConcat (RegexStar (RegexUnion (Str2Reg "00") (Str2Reg "111"))) (RegexConcat (RegexUnion (RegexStar (Str2Reg "2")) (RegexStar (Str2Reg "333"))) (RegexConcat (RegexUnion (RegexStar (Str2Reg "44")) (RegexStar (Str2Reg "555"))) (RegexConcat (RegexUnion (RegexPlus (Str2Reg "666")) (RegexPlus (Str2Reg "7"))) (RegexConcat (RegexPlus (RegexPlus (Str2Reg "8"))) (RegexConcat (RegexPlus (RegexUnion (Str2Reg "999") (Str2Reg "aaa"))) (RegexConcat (RegexStar (RegexUnion (Str2Reg "bbb") (Str2Reg "ccc"))) (RegexConcat (RegexPlus (RegexUnion (Str2Reg "ddd") (Str2Reg "ee"))) (RegexConcat (RegexPlus (RegexUnion (Str2Reg "fff") (Str2Reg "g"))) (RegexConcat (RegexStar (RegexStar (Str2Reg "hhh"))) (RegexConcat (RegexPlus (RegexPlus (Str2Reg "iii"))) (RegexStar (RegexPlus (Str2Reg "jj"))))))))))))))))))))))))))))))))))))))))))))))))))))))))))))))))))))))))))))
(check-sat)